Maximize

66.0 b0 + 23.5 b1 + 19.5 b2 + 14.5 b3.v0 + 18.5 b3.v1 + 50.5 b4 + 23.5 b5.v0 + 22.5 b5.v1 + 2 b6 + 36.0 b7 + 6 b8.v0 + 6 b8.v1 + 13.5 b9 + 19.5 b10.v0 + 19.5 b10.v1 + 6 b11 + 23.5 b12 + 6 b13.v0 + 6 b13.v1 + 1 b14 + 7 b15.v0 + 7 b15.v1 + 6 b16


Subject to

\ === tcfg constraints ===
dSta_0 = 1
b0 - dSta_0 = 0
b0 - d0_7 = 0
b1 - d10_1 = 0
b1 - d1_3 - d1_6 = 0
b2 - d15_2 = 0
b2 - d2_4 - d2_3 = 0
b3 - d1_3 - d2_3 = 0
b3 - d3_5 = 0
b4 - d2_4 = 0
b4 - d4_5 = 0
b5 - d3_5 - d4_5 = 0
b6 - d1_6 = 0
b6 - d6_12 = 0
b7 - d0_7 = 0
b7 - d7_8 - d7_11 = 0
b8 - d7_8 - d11_8 = 0
b8 - d8_10 = 0
b9 - d11_9 = 0
b9 - d9_10 = 0
b10 - d8_10 - d9_10 = 0
b10 - d10_1 = 0
b11 - d7_11 = 0
b11 - d11_9 - d11_8 = 0
b12 - d6_12 = 0
b12 - d12_13 - d12_16 = 0
b13 - d12_13 - d16_13 = 0
b13 - d13_15 = 0
b14 - d16_14 = 0
b14 - d14_15 = 0
b15 - d13_15 - d14_15 = 0
b15 - d15_2 = 0
b16 - d12_16 = 0
b16 - d16_14 - d16_13 = 0


\ === header constraints ===



\ === context constraints ===
b3 - b3.v0 - b3.v1 = 0
b3.v0 - d1_3 = 0
b3.v1 - d2_3 = 0
b5 - b5.v0 - b5.v1 = 0
b5.v0 - d3_5 = 0
b5.v1 - d4_5 = 0
b8 - b8.v0 - b8.v1 = 0
b8.v0 - d7_8 = 0
b8.v1 - d11_8 = 0
b10 - b10.v0 - b10.v1 = 0
b10.v0 - d8_10 = 0
b10.v1 - d9_10 = 0
b13 - b13.v0 - b13.v1 = 0
b13.v0 - d12_13 = 0
b13.v1 - d16_13 = 0
b15 - b15.v0 - b15.v1 = 0
b15.v0 - d13_15 = 0
b15.v1 - d14_15 = 0


\ === inst cache constraints ===



\ === data cache constraints ===



Generals


b0
b1
b2
b3
b3.v0
b3.v1
b4
b5
b5.v0
b5.v1
b6
b7
b8
b8.v0
b8.v1
b9
b10
b10.v0
b10.v1
b11
b12
b13
b13.v0
b13.v1
b14
b15
b15.v0
b15.v1
b16
d0_7
d1_3
d1_6
d2_3
d2_4
d3_5
d4_5
d6_12
d7_8
d7_11
d8_10
d9_10
d10_1
d11_8
d11_9
d12_13
d12_16
d13_15
d14_15
d15_2
d16_13
d16_14
dSta_0


End
\ total cons: 70    total vars: 52
